40
    81    39    78    84    99    82    71    85    98    10    52    56    12    67    58    53     5    51     1    40    65    11    75    80    11    52    48    41    91    31    70    94    78    57    66    13    76    92    40    75
     4    10     6     8     5     4     1     5     5     6     2     3     9     2     6     2     2    10     1    10     5     7     1     7     2     4     3     5    10     8     7     4     8     5     7     9     3     2     9     2
     0   179    19     2   119     0    40    99    24     0     0    69     0     0     0     0   151   128   171     0    12   147     0     0     0     0    29   145     0   110   227    45   189     0     0     0     0    10     0     0
